\ENCODING=ISO-8859-1
\Problem name: IloCplex

Minimize
 obj: x25#24 + x26#25 + x27#26 + x28#27
Subject To
 Cst_capacity_car_0#0:  4 x(0)(0)#0 + 3 x(1)(0)#1 + 3 x(2)(0)#2 + 2 x(3)(0)#3
                        + 2 x(4)(0)#4 + 2 x(5)(0)#5 <= 8
 Cst_capacity_car_1#1:  4 x(0)(1)#6 + 3 x(1)(1)#7 + 3 x(2)(1)#8 + 2 x(3)(1)#9
                        + 2 x(4)(1)#10 + 2 x(5)(1)#11 <= 8
 Cst_capacity_car_2#2:  4 x(0)(2)#12 + 3 x(1)(2)#13 + 3 x(2)(2)#14
                        + 2 x(3)(2)#15 + 2 x(4)(2)#16 + 2 x(5)(2)#17 <= 8
 Cst_capacity_car_3#3:  4 x(0)(3)#18 + 3 x(1)(3)#19 + 3 x(2)(3)#20
                        + 2 x(3)(3)#21 + 2 x(4)(3)#22 + 2 x(5)(3)#23 <= 8
 Cst_x_0_a#4:           x(0)(0)#0 + x(0)(1)#6 + x(0)(2)#12 + x(0)(3)#18 <= 1
 Cst_x_0_a#5:           x(0)(0)#0 + x(0)(1)#6 + x(0)(2)#12 + x(0)(3)#18 >= 1
 Cst_x_1_a#6:           x(1)(0)#1 + x(1)(1)#7 + x(1)(2)#13 + x(1)(3)#19 <= 1
 Cst_x_1_a#7:           x(1)(0)#1 + x(1)(1)#7 + x(1)(2)#13 + x(1)(3)#19 >= 1
 Cst_x_2_a#8:           x(2)(0)#2 + x(2)(1)#8 + x(2)(2)#14 + x(2)(3)#20 <= 1
 Cst_x_2_a#9:           x(2)(0)#2 + x(2)(1)#8 + x(2)(2)#14 + x(2)(3)#20 >= 1
 Cst_x_3_a#10:          x(3)(0)#3 + x(3)(1)#9 + x(3)(2)#15 + x(3)(3)#21 <= 1
 Cst_x_3_a#11:          x(3)(0)#3 + x(3)(1)#9 + x(3)(2)#15 + x(3)(3)#21 >= 1
 Cst_x_4_a#12:          x(4)(0)#4 + x(4)(1)#10 + x(4)(2)#16 + x(4)(3)#22 <= 1
 Cst_x_4_a#13:          x(4)(0)#4 + x(4)(1)#10 + x(4)(2)#16 + x(4)(3)#22 >= 1
 Cst_x_5_a#14:          x(5)(0)#5 + x(5)(1)#11 + x(5)(2)#17 + x(5)(3)#23 <= 1
 Cst_x_5_a#15:          x(5)(0)#5 + x(5)(1)#11 + x(5)(2)#17 + x(5)(3)#23 >= 1
 Cst_capacity_car_0#16: - x(0)(0)#0 + x25#24 >= 0
 Cst_capacity_car_1#17: - x(1)(0)#1 + x25#24 >= 0
 Cst_capacity_car_2#18: - x(2)(0)#2 + x25#24 >= 0
 Cst_capacity_car_3#19: - x(3)(0)#3 + x25#24 >= 0
 c21#20:                - x(4)(0)#4 + x25#24 >= 0
 c22#21:                - x(5)(0)#5 + x25#24 >= 0
 c23#22:                - x(0)(1)#6 + x26#25 >= 0
 c24#23:                - x(1)(1)#7 + x26#25 >= 0
 c25#24:                - x(2)(1)#8 + x26#25 >= 0
 c26#25:                - x(3)(1)#9 + x26#25 >= 0
 c27#26:                - x(4)(1)#10 + x26#25 >= 0
 c28#27:                - x(5)(1)#11 + x26#25 >= 0
 c29#28:                - x(0)(2)#12 + x27#26 >= 0
 c30#29:                - x(1)(2)#13 + x27#26 >= 0
 c31#30:                - x(2)(2)#14 + x27#26 >= 0
 c32#31:                - x(3)(2)#15 + x27#26 >= 0
 c33#32:                - x(4)(2)#16 + x27#26 >= 0
 c34#33:                - x(5)(2)#17 + x27#26 >= 0
 c35#34:                - x(0)(3)#18 + x28#27 >= 0
 c36#35:                - x(1)(3)#19 + x28#27 >= 0
 c37#36:                - x(2)(3)#20 + x28#27 >= 0
 c38#37:                - x(3)(3)#21 + x28#27 >= 0
 c39#38:                - x(4)(3)#22 + x28#27 >= 0
 c40#39:                - x(5)(3)#23 + x28#27 >= 0
 c41#40:                x(0)(0)#0 + x(1)(0)#1 + x(2)(0)#2 + x(3)(0)#3
                        + x(4)(0)#4 + x(5)(0)#5 - x25#24 >= 0
 c42#41:                x(0)(1)#6 + x(1)(1)#7 + x(2)(1)#8 + x(3)(1)#9
                        + x(4)(1)#10 + x(5)(1)#11 - x26#25 >= 0
 c43#42:                x(0)(2)#12 + x(1)(2)#13 + x(2)(2)#14 + x(3)(2)#15
                        + x(4)(2)#16 + x(5)(2)#17 - x27#26 >= 0
 c44#43:                x(0)(3)#18 + x(1)(3)#19 + x(2)(3)#20 + x(3)(3)#21
                        + x(4)(3)#22 + x(5)(3)#23 - x28#27 >= 0
Bounds
 0 <= x(0)(0)#0 <= 1
 0 <= x(1)(0)#1 <= 1
 0 <= x(2)(0)#2 <= 1
 0 <= x(3)(0)#3 <= 1
 0 <= x(4)(0)#4 <= 1
 0 <= x(5)(0)#5 <= 1
 0 <= x(0)(1)#6 <= 1
 0 <= x(1)(1)#7 <= 1
 0 <= x(2)(1)#8 <= 1
 0 <= x(3)(1)#9 <= 1
 0 <= x(4)(1)#10 <= 1
 0 <= x(5)(1)#11 <= 1
 0 <= x(0)(2)#12 <= 1
 0 <= x(1)(2)#13 <= 1
 0 <= x(2)(2)#14 <= 1
 0 <= x(3)(2)#15 <= 1
 0 <= x(4)(2)#16 <= 1
 0 <= x(5)(2)#17 <= 1
 0 <= x(0)(3)#18 <= 1
 0 <= x(1)(3)#19 <= 1
 0 <= x(2)(3)#20 <= 1
 0 <= x(3)(3)#21 <= 1
 0 <= x(4)(3)#22 <= 1
 0 <= x(5)(3)#23 <= 1
 0 <= x25#24 <= 1
 0 <= x26#25 <= 1
 0 <= x27#26 <= 1
 0 <= x28#27 <= 1
Binaries
 x(0)(0)#0  x(1)(0)#1  x(2)(0)#2  x(3)(0)#3  x(4)(0)#4  x(5)(0)#5  x(0)(1)#6 
 x(1)(1)#7  x(2)(1)#8  x(3)(1)#9  x(4)(1)#10  x(5)(1)#11  x(0)(2)#12 
 x(1)(2)#13  x(2)(2)#14  x(3)(2)#15  x(4)(2)#16  x(5)(2)#17  x(0)(3)#18 
 x(1)(3)#19  x(2)(3)#20  x(3)(3)#21  x(4)(3)#22  x(5)(3)#23 
End
